\ LP format - for model browsing. Use MPS format to capture full model detail.
Maximize
obj:   x[5] + x[1] + x[6] + x[2] + x[8] + x[4] + x[9] + x[11] + x[13] + x[14]
   + x[7] + x[15] + x[16] + x[10] + x[12] + x[17] + x[18] + x[19] + x[21]
   + x[22] + x[23] + x[24] + x[25] + x[3] + x[27] + x[28] + x[29] + x[30]
   + x[31] + x[32] + x[33] + x[34] + x[35] + x[36] + x[20] + x[37] + x[38]
   + x[39] + x[26] + x[40] + x[41] + x[42] + x[43] + x[44] + x[45] + x[46]
   + x[47] + x[48] + x[49] + x[50] + x[51] + x[52] + x[53] + x[54] + x[55]
   + x[56] + x[57] + x[58] + x[59] + x[60] + x[61] + x[62] + x[63] + x[64]
   + x[65] + x[66] + x[67] + x[68] + x[69] + x[70] + x[71] + x[72] + x[73]
   + x[74] + x[75] + x[76] + x[77] + x[78] + x[79] + x[80] + x[81] + x[82]
   + x[83] + x[84] + x[85] + x[86] + x[87] + x[88] + x[89] + x[90] + x[91]
   + x[92] + x[93] + x[94] + x[95] + x[96] + x[97] + x[98] + x[99] + x[100]
   + x[101] + x[102] + x[103] + x[104] + x[105] + x[106] + x[107] + x[108]
   + x[109] + x[110] + x[111] + x[112] + x[113] + x[114] + x[115] + x[116]
   + x[117] + x[118] + x[119] + x[120] + x[121] + x[122] + x[123] + x[124]
   + x[125]
Subject To
 edge1: x[5] + x[1] <= 1
 edge2: x[5] + x[13] <= 1
 edge3: x[5] + x[19] <= 1
 edge4: x[5] + x[30] <= 1
 edge5: x[5] + x[35] <= 1
 edge6: x[5] + x[65] <= 1
 edge7: x[5] + x[77] <= 1
 edge8: x[5] + x[82] <= 1
 edge9: x[5] + x[84] <= 1
 edge10: x[5] + x[92] <= 1
 edge11: x[5] + x[118] <= 1
 edge12: x[5] + x[121] <= 1
 edge13: x[1] + x[29] <= 1
 edge14: x[1] + x[44] <= 1
 edge15: x[1] + x[53] <= 1
 edge16: x[1] + x[79] <= 1
 edge17: x[1] + x[80] <= 1
 edge18: x[1] + x[113] <= 1
 edge19: x[1] + x[120] <= 1
 edge20: x[1] + x[123] <= 1
 edge21: x[6] + x[2] <= 1
 edge22: x[6] + x[9] <= 1
 edge23: x[6] + x[27] <= 1
 edge24: x[6] + x[38] <= 1
 edge25: x[6] + x[42] <= 1
 edge26: x[6] + x[56] <= 1
 edge27: x[6] + x[67] <= 1
 edge28: x[6] + x[69] <= 1
 edge29: x[6] + x[75] <= 1
 edge30: x[6] + x[82] <= 1
 edge31: x[6] + x[109] <= 1
 edge32: x[6] + x[120] <= 1
 edge33: x[6] + x[123] <= 1
 edge34: x[2] + x[11] <= 1
 edge35: x[2] + x[17] <= 1
 edge36: x[2] + x[27] <= 1
 edge37: x[2] + x[32] <= 1
 edge38: x[2] + x[40] <= 1
 edge39: x[2] + x[46] <= 1
 edge40: x[2] + x[79] <= 1
 edge41: x[2] + x[105] <= 1
 edge42: x[8] + x[4] <= 1
 edge43: x[8] + x[15] <= 1
 edge44: x[8] + x[19] <= 1
 edge45: x[8] + x[21] <= 1
 edge46: x[8] + x[42] <= 1
 edge47: x[8] + x[57] <= 1
 edge48: x[8] + x[58] <= 1
 edge49: x[8] + x[62] <= 1
 edge50: x[8] + x[65] <= 1
 edge51: x[8] + x[103] <= 1
 edge52: x[8] + x[105] <= 1
 edge53: x[8] + x[110] <= 1
 edge54: x[4] + x[9] <= 1
 edge55: x[4] + x[38] <= 1
 edge56: x[4] + x[69] <= 1
 edge57: x[4] + x[72] <= 1
 edge58: x[4] + x[99] <= 1
 edge59: x[4] + x[105] <= 1
 edge60: x[4] + x[113] <= 1
 edge61: x[9] + x[14] <= 1
 edge62: x[9] + x[28] <= 1
 edge63: x[9] + x[49] <= 1
 edge64: x[9] + x[52] <= 1
 edge65: x[9] + x[61] <= 1
 edge66: x[9] + x[66] <= 1
 edge67: x[9] + x[73] <= 1
 edge68: x[9] + x[77] <= 1
 edge69: x[9] + x[84] <= 1
 edge70: x[9] + x[91] <= 1
 edge71: x[9] + x[96] <= 1
 edge72: x[9] + x[100] <= 1
 edge73: x[9] + x[101] <= 1
 edge74: x[9] + x[111] <= 1
 edge75: x[11] + x[19] <= 1
 edge76: x[11] + x[32] <= 1
 edge77: x[11] + x[63] <= 1
 edge78: x[11] + x[67] <= 1
 edge79: x[11] + x[71] <= 1
 edge80: x[11] + x[77] <= 1
 edge81: x[11] + x[88] <= 1
 edge82: x[11] + x[96] <= 1
 edge83: x[11] + x[103] <= 1
 edge84: x[11] + x[106] <= 1
 edge85: x[11] + x[121] <= 1
 edge86: x[11] + x[122] <= 1
 edge87: x[13] + x[14] <= 1
 edge88: x[13] + x[23] <= 1
 edge89: x[13] + x[37] <= 1
 edge90: x[13] + x[46] <= 1
 edge91: x[13] + x[83] <= 1
 edge92: x[13] + x[84] <= 1
 edge93: x[13] + x[96] <= 1
 edge94: x[13] + x[99] <= 1
 edge95: x[13] + x[101] <= 1
 edge96: x[13] + x[116] <= 1
 edge97: x[13] + x[119] <= 1
 edge98: x[14] + x[7] <= 1
 edge99: x[14] + x[52] <= 1
 edge100: x[14] + x[57] <= 1
 edge101: x[14] + x[61] <= 1
 edge102: x[14] + x[66] <= 1
 edge103: x[14] + x[76] <= 1
 edge104: x[14] + x[79] <= 1
 edge105: x[14] + x[80] <= 1
 edge106: x[14] + x[86] <= 1
 edge107: x[14] + x[87] <= 1
 edge108: x[14] + x[100] <= 1
 edge109: x[14] + x[103] <= 1
 edge110: x[7] + x[21] <= 1
 edge111: x[7] + x[41] <= 1
 edge112: x[7] + x[42] <= 1
 edge113: x[7] + x[51] <= 1
 edge114: x[7] + x[73] <= 1
 edge115: x[7] + x[77] <= 1
 edge116: x[7] + x[98] <= 1
 edge117: x[15] + x[30] <= 1
 edge118: x[15] + x[35] <= 1
 edge119: x[15] + x[55] <= 1
 edge120: x[15] + x[66] <= 1
 edge121: x[15] + x[69] <= 1
 edge122: x[15] + x[92] <= 1
 edge123: x[15] + x[93] <= 1
 edge124: x[15] + x[116] <= 1
 edge125: x[16] + x[10] <= 1
 edge126: x[16] + x[12] <= 1
 edge127: x[16] + x[35] <= 1
 edge128: x[16] + x[41] <= 1
 edge129: x[16] + x[45] <= 1
 edge130: x[16] + x[59] <= 1
 edge131: x[16] + x[62] <= 1
 edge132: x[16] + x[78] <= 1
 edge133: x[16] + x[87] <= 1
 edge134: x[16] + x[98] <= 1
 edge135: x[16] + x[104] <= 1
 edge136: x[16] + x[105] <= 1
 edge137: x[16] + x[106] <= 1
 edge138: x[16] + x[114] <= 1
 edge139: x[10] + x[25] <= 1
 edge140: x[10] + x[31] <= 1
 edge141: x[10] + x[33] <= 1
 edge142: x[10] + x[46] <= 1
 edge143: x[10] + x[62] <= 1
 edge144: x[10] + x[67] <= 1
 edge145: x[10] + x[81] <= 1
 edge146: x[10] + x[87] <= 1
 edge147: x[10] + x[110] <= 1
 edge148: x[10] + x[118] <= 1
 edge149: x[12] + x[18] <= 1
 edge150: x[12] + x[34] <= 1
 edge151: x[12] + x[35] <= 1
 edge152: x[12] + x[42] <= 1
 edge153: x[12] + x[46] <= 1
 edge154: x[12] + x[47] <= 1
 edge155: x[12] + x[52] <= 1
 edge156: x[12] + x[72] <= 1
 edge157: x[12] + x[73] <= 1
 edge158: x[12] + x[100] <= 1
 edge159: x[12] + x[103] <= 1
 edge160: x[17] + x[22] <= 1
 edge161: x[17] + x[28] <= 1
 edge162: x[17] + x[38] <= 1
 edge163: x[17] + x[51] <= 1
 edge164: x[17] + x[52] <= 1
 edge165: x[17] + x[58] <= 1
 edge166: x[17] + x[61] <= 1
 edge167: x[17] + x[84] <= 1
 edge168: x[17] + x[94] <= 1
 edge169: x[17] + x[98] <= 1
 edge170: x[17] + x[99] <= 1
 edge171: x[17] + x[102] <= 1
 edge172: x[17] + x[112] <= 1
 edge173: x[17] + x[113] <= 1
 edge174: x[17] + x[122] <= 1
 edge175: x[18] + x[32] <= 1
 edge176: x[18] + x[66] <= 1
 edge177: x[18] + x[75] <= 1
 edge178: x[18] + x[84] <= 1
 edge179: x[18] + x[90] <= 1
 edge180: x[18] + x[114] <= 1
 edge181: x[18] + x[123] <= 1
 edge182: x[19] + x[28] <= 1
 edge183: x[19] + x[42] <= 1
 edge184: x[19] + x[48] <= 1
 edge185: x[19] + x[66] <= 1
 edge186: x[19] + x[98] <= 1
 edge187: x[19] + x[113] <= 1
 edge188: x[19] + x[114] <= 1
 edge189: x[21] + x[24] <= 1
 edge190: x[21] + x[65] <= 1
 edge191: x[21] + x[74] <= 1
 edge192: x[21] + x[84] <= 1
 edge193: x[21] + x[92] <= 1
 edge194: x[22] + x[37] <= 1
 edge195: x[22] + x[41] <= 1
 edge196: x[22] + x[50] <= 1
 edge197: x[22] + x[54] <= 1
 edge198: x[22] + x[67] <= 1
 edge199: x[22] + x[68] <= 1
 edge200: x[22] + x[82] <= 1
 edge201: x[22] + x[85] <= 1
 edge202: x[22] + x[86] <= 1
 edge203: x[22] + x[90] <= 1
 edge204: x[22] + x[91] <= 1
 edge205: x[22] + x[120] <= 1
 edge206: x[23] + x[50] <= 1
 edge207: x[23] + x[71] <= 1
 edge208: x[23] + x[98] <= 1
 edge209: x[23] + x[110] <= 1
 edge210: x[23] + x[113] <= 1
 edge211: x[23] + x[115] <= 1
 edge212: x[23] + x[123] <= 1
 edge213: x[24] + x[29] <= 1
 edge214: x[24] + x[35] <= 1
 edge215: x[24] + x[45] <= 1
 edge216: x[24] + x[48] <= 1
 edge217: x[24] + x[50] <= 1
 edge218: x[24] + x[62] <= 1
 edge219: x[24] + x[63] <= 1
 edge220: x[24] + x[73] <= 1
 edge221: x[24] + x[76] <= 1
 edge222: x[24] + x[84] <= 1
 edge223: x[24] + x[88] <= 1
 edge224: x[24] + x[91] <= 1
 edge225: x[24] + x[112] <= 1
 edge226: x[24] + x[120] <= 1
 edge227: x[25] + x[3] <= 1
 edge228: x[25] + x[42] <= 1
 edge229: x[25] + x[46] <= 1
 edge230: x[25] + x[55] <= 1
 edge231: x[25] + x[69] <= 1
 edge232: x[25] + x[74] <= 1
 edge233: x[25] + x[106] <= 1
 edge234: x[25] + x[111] <= 1
 edge235: x[3] + x[35] <= 1
 edge236: x[3] + x[38] <= 1
 edge237: x[3] + x[41] <= 1
 edge238: x[3] + x[56] <= 1
 edge239: x[3] + x[62] <= 1
 edge240: x[3] + x[63] <= 1
 edge241: x[3] + x[88] <= 1
 edge242: x[3] + x[112] <= 1
 edge243: x[3] + x[115] <= 1
 edge244: x[3] + x[116] <= 1
 edge245: x[27] + x[31] <= 1
 edge246: x[27] + x[36] <= 1
 edge247: x[27] + x[51] <= 1
 edge248: x[27] + x[70] <= 1
 edge249: x[27] + x[92] <= 1
 edge250: x[27] + x[98] <= 1
 edge251: x[27] + x[99] <= 1
 edge252: x[27] + x[103] <= 1
 edge253: x[27] + x[106] <= 1
 edge254: x[27] + x[116] <= 1
 edge255: x[27] + x[120] <= 1
 edge256: x[27] + x[124] <= 1
 edge257: x[28] + x[30] <= 1
 edge258: x[28] + x[52] <= 1
 edge259: x[28] + x[53] <= 1
 edge260: x[28] + x[66] <= 1
 edge261: x[28] + x[70] <= 1
 edge262: x[28] + x[74] <= 1
 edge263: x[28] + x[81] <= 1
 edge264: x[29] + x[43] <= 1
 edge265: x[29] + x[54] <= 1
 edge266: x[29] + x[63] <= 1
 edge267: x[29] + x[64] <= 1
 edge268: x[29] + x[69] <= 1
 edge269: x[29] + x[118] <= 1
 edge270: x[30] + x[47] <= 1
 edge271: x[30] + x[53] <= 1
 edge272: x[30] + x[57] <= 1
 edge273: x[30] + x[63] <= 1
 edge274: x[30] + x[76] <= 1
 edge275: x[31] + x[61] <= 1
 edge276: x[31] + x[67] <= 1
 edge277: x[31] + x[70] <= 1
 edge278: x[31] + x[74] <= 1
 edge279: x[31] + x[85] <= 1
 edge280: x[31] + x[91] <= 1
 edge281: x[31] + x[115] <= 1
 edge282: x[31] + x[119] <= 1
 edge283: x[32] + x[34] <= 1
 edge284: x[32] + x[50] <= 1
 edge285: x[32] + x[62] <= 1
 edge286: x[32] + x[70] <= 1
 edge287: x[32] + x[76] <= 1
 edge288: x[32] + x[85] <= 1
 edge289: x[32] + x[86] <= 1
 edge290: x[32] + x[98] <= 1
 edge291: x[32] + x[101] <= 1
 edge292: x[32] + x[103] <= 1
 edge293: x[32] + x[105] <= 1
 edge294: x[32] + x[112] <= 1
 edge295: x[33] + x[43] <= 1
 edge296: x[33] + x[63] <= 1
 edge297: x[33] + x[86] <= 1
 edge298: x[33] + x[93] <= 1
 edge299: x[33] + x[121] <= 1
 edge300: x[33] + x[124] <= 1
 edge301: x[34] + x[44] <= 1
 edge302: x[34] + x[70] <= 1
 edge303: x[34] + x[103] <= 1
 edge304: x[34] + x[125] <= 1
 edge305: x[35] + x[36] <= 1
 edge306: x[35] + x[41] <= 1
 edge307: x[35] + x[43] <= 1
 edge308: x[35] + x[51] <= 1
 edge309: x[35] + x[56] <= 1
 edge310: x[35] + x[63] <= 1
 edge311: x[35] + x[67] <= 1
 edge312: x[35] + x[68] <= 1
 edge313: x[35] + x[76] <= 1
 edge314: x[35] + x[96] <= 1
 edge315: x[35] + x[117] <= 1
 edge316: x[36] + x[20] <= 1
 edge317: x[36] + x[46] <= 1
 edge318: x[36] + x[47] <= 1
 edge319: x[36] + x[57] <= 1
 edge320: x[36] + x[61] <= 1
 edge321: x[36] + x[65] <= 1
 edge322: x[36] + x[91] <= 1
 edge323: x[36] + x[102] <= 1
 edge324: x[36] + x[103] <= 1
 edge325: x[20] + x[47] <= 1
 edge326: x[20] + x[81] <= 1
 edge327: x[20] + x[85] <= 1
 edge328: x[20] + x[97] <= 1
 edge329: x[20] + x[102] <= 1
 edge330: x[20] + x[124] <= 1
 edge331: x[37] + x[40] <= 1
 edge332: x[37] + x[49] <= 1
 edge333: x[37] + x[59] <= 1
 edge334: x[37] + x[62] <= 1
 edge335: x[37] + x[65] <= 1
 edge336: x[37] + x[66] <= 1
 edge337: x[37] + x[67] <= 1
 edge338: x[37] + x[77] <= 1
 edge339: x[37] + x[82] <= 1
 edge340: x[37] + x[88] <= 1
 edge341: x[38] + x[56] <= 1
 edge342: x[38] + x[63] <= 1
 edge343: x[38] + x[88] <= 1
 edge344: x[38] + x[94] <= 1
 edge345: x[38] + x[103] <= 1
 edge346: x[38] + x[116] <= 1
 edge347: x[39] + x[26] <= 1
 edge348: x[39] + x[63] <= 1
 edge349: x[39] + x[72] <= 1
 edge350: x[39] + x[74] <= 1
 edge351: x[39] + x[79] <= 1
 edge352: x[39] + x[94] <= 1
 edge353: x[39] + x[105] <= 1
 edge354: x[26] + x[46] <= 1
 edge355: x[26] + x[57] <= 1
 edge356: x[26] + x[65] <= 1
 edge357: x[26] + x[72] <= 1
 edge358: x[26] + x[82] <= 1
 edge359: x[26] + x[88] <= 1
 edge360: x[26] + x[93] <= 1
 edge361: x[26] + x[116] <= 1
 edge362: x[26] + x[117] <= 1
 edge363: x[40] + x[71] <= 1
 edge364: x[40] + x[72] <= 1
 edge365: x[40] + x[76] <= 1
 edge366: x[40] + x[82] <= 1
 edge367: x[40] + x[85] <= 1
 edge368: x[40] + x[92] <= 1
 edge369: x[40] + x[111] <= 1
 edge370: x[40] + x[119] <= 1
 edge371: x[40] + x[124] <= 1
 edge372: x[41] + x[50] <= 1
 edge373: x[41] + x[51] <= 1
 edge374: x[41] + x[80] <= 1
 edge375: x[41] + x[89] <= 1
 edge376: x[41] + x[108] <= 1
 edge377: x[41] + x[110] <= 1
 edge378: x[41] + x[122] <= 1
 edge379: x[42] + x[51] <= 1
 edge380: x[42] + x[59] <= 1
 edge381: x[42] + x[64] <= 1
 edge382: x[42] + x[84] <= 1
 edge383: x[42] + x[88] <= 1
 edge384: x[42] + x[102] <= 1
 edge385: x[42] + x[106] <= 1
 edge386: x[42] + x[107] <= 1
 edge387: x[42] + x[108] <= 1
 edge388: x[42] + x[122] <= 1
 edge389: x[43] + x[49] <= 1
 edge390: x[43] + x[55] <= 1
 edge391: x[43] + x[57] <= 1
 edge392: x[43] + x[68] <= 1
 edge393: x[43] + x[78] <= 1
 edge394: x[44] + x[53] <= 1
 edge395: x[44] + x[56] <= 1
 edge396: x[44] + x[87] <= 1
 edge397: x[44] + x[90] <= 1
 edge398: x[44] + x[97] <= 1
 edge399: x[44] + x[120] <= 1
 edge400: x[44] + x[122] <= 1
 edge401: x[45] + x[62] <= 1
 edge402: x[45] + x[64] <= 1
 edge403: x[45] + x[67] <= 1
 edge404: x[45] + x[83] <= 1
 edge405: x[45] + x[89] <= 1
 edge406: x[45] + x[93] <= 1
 edge407: x[45] + x[107] <= 1
 edge408: x[45] + x[122] <= 1
 edge409: x[46] + x[47] <= 1
 edge410: x[46] + x[91] <= 1
 edge411: x[46] + x[106] <= 1
 edge412: x[46] + x[111] <= 1
 edge413: x[47] + x[50] <= 1
 edge414: x[47] + x[61] <= 1
 edge415: x[47] + x[67] <= 1
 edge416: x[47] + x[99] <= 1
 edge417: x[47] + x[103] <= 1
 edge418: x[47] + x[105] <= 1
 edge419: x[47] + x[115] <= 1
 edge420: x[47] + x[120] <= 1
 edge421: x[47] + x[124] <= 1
 edge422: x[48] + x[51] <= 1
 edge423: x[48] + x[52] <= 1
 edge424: x[48] + x[54] <= 1
 edge425: x[48] + x[65] <= 1
 edge426: x[48] + x[73] <= 1
 edge427: x[48] + x[86] <= 1
 edge428: x[48] + x[93] <= 1
 edge429: x[48] + x[100] <= 1
 edge430: x[48] + x[111] <= 1
 edge431: x[49] + x[52] <= 1
 edge432: x[49] + x[55] <= 1
 edge433: x[49] + x[58] <= 1
 edge434: x[49] + x[78] <= 1
 edge435: x[49] + x[84] <= 1
 edge436: x[49] + x[98] <= 1
 edge437: x[49] + x[99] <= 1
 edge438: x[49] + x[104] <= 1
 edge439: x[49] + x[107] <= 1
 edge440: x[49] + x[110] <= 1
 edge441: x[49] + x[114] <= 1
 edge442: x[49] + x[125] <= 1
 edge443: x[50] + x[55] <= 1
 edge444: x[50] + x[57] <= 1
 edge445: x[50] + x[73] <= 1
 edge446: x[50] + x[83] <= 1
 edge447: x[50] + x[91] <= 1
 edge448: x[50] + x[110] <= 1
 edge449: x[50] + x[117] <= 1
 edge450: x[51] + x[59] <= 1
 edge451: x[51] + x[63] <= 1
 edge452: x[51] + x[73] <= 1
 edge453: x[51] + x[82] <= 1
 edge454: x[51] + x[89] <= 1
 edge455: x[51] + x[106] <= 1
 edge456: x[51] + x[107] <= 1
 edge457: x[51] + x[108] <= 1
 edge458: x[51] + x[114] <= 1
 edge459: x[51] + x[117] <= 1
 edge460: x[51] + x[122] <= 1
 edge461: x[52] + x[58] <= 1
 edge462: x[52] + x[61] <= 1
 edge463: x[52] + x[63] <= 1
 edge464: x[52] + x[80] <= 1
 edge465: x[52] + x[92] <= 1
 edge466: x[52] + x[102] <= 1
 edge467: x[52] + x[111] <= 1
 edge468: x[52] + x[118] <= 1
 edge469: x[52] + x[121] <= 1
 edge470: x[53] + x[62] <= 1
 edge471: x[53] + x[68] <= 1
 edge472: x[53] + x[84] <= 1
 edge473: x[53] + x[90] <= 1
 edge474: x[53] + x[91] <= 1
 edge475: x[53] + x[111] <= 1
 edge476: x[53] + x[113] <= 1
 edge477: x[53] + x[115] <= 1
 edge478: x[53] + x[122] <= 1
 edge479: x[54] + x[55] <= 1
 edge480: x[54] + x[62] <= 1
 edge481: x[54] + x[83] <= 1
 edge482: x[54] + x[97] <= 1
 edge483: x[54] + x[112] <= 1
 edge484: x[54] + x[118] <= 1
 edge485: x[55] + x[58] <= 1
 edge486: x[55] + x[62] <= 1
 edge487: x[55] + x[64] <= 1
 edge488: x[55] + x[77] <= 1
 edge489: x[55] + x[97] <= 1
 edge490: x[55] + x[119] <= 1
 edge491: x[55] + x[124] <= 1
 edge492: x[56] + x[60] <= 1
 edge493: x[56] + x[62] <= 1
 edge494: x[56] + x[71] <= 1
 edge495: x[56] + x[84] <= 1
 edge496: x[56] + x[99] <= 1
 edge497: x[56] + x[105] <= 1
 edge498: x[56] + x[118] <= 1
 edge499: x[57] + x[59] <= 1
 edge500: x[57] + x[60] <= 1
 edge501: x[57] + x[64] <= 1
 edge502: x[57] + x[84] <= 1
 edge503: x[57] + x[114] <= 1
 edge504: x[58] + x[61] <= 1
 edge505: x[58] + x[64] <= 1
 edge506: x[58] + x[65] <= 1
 edge507: x[58] + x[77] <= 1
 edge508: x[58] + x[82] <= 1
 edge509: x[58] + x[97] <= 1
 edge510: x[58] + x[100] <= 1
 edge511: x[58] + x[101] <= 1
 edge512: x[58] + x[108] <= 1
 edge513: x[58] + x[112] <= 1
 edge514: x[58] + x[119] <= 1
 edge515: x[59] + x[69] <= 1
 edge516: x[59] + x[74] <= 1
 edge517: x[59] + x[93] <= 1
 edge518: x[59] + x[103] <= 1
 edge519: x[59] + x[122] <= 1
 edge520: x[60] + x[77] <= 1
 edge521: x[60] + x[95] <= 1
 edge522: x[60] + x[110] <= 1
 edge523: x[60] + x[125] <= 1
 edge524: x[61] + x[77] <= 1
 edge525: x[61] + x[93] <= 1
 edge526: x[61] + x[95] <= 1
 edge527: x[61] + x[96] <= 1
 edge528: x[61] + x[111] <= 1
 edge529: x[62] + x[66] <= 1
 edge530: x[62] + x[75] <= 1
 edge531: x[62] + x[89] <= 1
 edge532: x[62] + x[90] <= 1
 edge533: x[62] + x[92] <= 1
 edge534: x[62] + x[111] <= 1
 edge535: x[62] + x[125] <= 1
 edge536: x[63] + x[69] <= 1
 edge537: x[63] + x[84] <= 1
 edge538: x[63] + x[123] <= 1
 edge539: x[63] + x[124] <= 1
 edge540: x[64] + x[66] <= 1
 edge541: x[64] + x[77] <= 1
 edge542: x[64] + x[91] <= 1
 edge543: x[64] + x[106] <= 1
 edge544: x[64] + x[108] <= 1
 edge545: x[64] + x[115] <= 1
 edge546: x[64] + x[119] <= 1
 edge547: x[64] + x[121] <= 1
 edge548: x[65] + x[69] <= 1
 edge549: x[65] + x[75] <= 1
 edge550: x[65] + x[85] <= 1
 edge551: x[65] + x[103] <= 1
 edge552: x[66] + x[74] <= 1
 edge553: x[66] + x[75] <= 1
 edge554: x[66] + x[101] <= 1
 edge555: x[66] + x[102] <= 1
 edge556: x[66] + x[108] <= 1
 edge557: x[66] + x[112] <= 1
 edge558: x[66] + x[122] <= 1
 edge559: x[67] + x[69] <= 1
 edge560: x[67] + x[116] <= 1
 edge561: x[68] + x[80] <= 1
 edge562: x[68] + x[86] <= 1
 edge563: x[68] + x[91] <= 1
 edge564: x[68] + x[97] <= 1
 edge565: x[68] + x[116] <= 1
 edge566: x[68] + x[119] <= 1
 edge567: x[69] + x[77] <= 1
 edge568: x[69] + x[78] <= 1
 edge569: x[69] + x[79] <= 1
 edge570: x[69] + x[83] <= 1
 edge571: x[69] + x[96] <= 1
 edge572: x[69] + x[97] <= 1
 edge573: x[69] + x[99] <= 1
 edge574: x[69] + x[103] <= 1
 edge575: x[69] + x[109] <= 1
 edge576: x[70] + x[90] <= 1
 edge577: x[70] + x[93] <= 1
 edge578: x[70] + x[94] <= 1
 edge579: x[70] + x[106] <= 1
 edge580: x[70] + x[118] <= 1
 edge581: x[71] + x[87] <= 1
 edge582: x[71] + x[94] <= 1
 edge583: x[71] + x[98] <= 1
 edge584: x[71] + x[110] <= 1
 edge585: x[71] + x[113] <= 1
 edge586: x[71] + x[119] <= 1
 edge587: x[72] + x[73] <= 1
 edge588: x[72] + x[78] <= 1
 edge589: x[72] + x[87] <= 1
 edge590: x[72] + x[91] <= 1
 edge591: x[72] + x[107] <= 1
 edge592: x[72] + x[113] <= 1
 edge593: x[72] + x[124] <= 1
 edge594: x[73] + x[92] <= 1
 edge595: x[73] + x[97] <= 1
 edge596: x[73] + x[105] <= 1
 edge597: x[74] + x[79] <= 1
 edge598: x[74] + x[82] <= 1
 edge599: x[74] + x[89] <= 1
 edge600: x[74] + x[92] <= 1
 edge601: x[74] + x[104] <= 1
 edge602: x[74] + x[107] <= 1
 edge603: x[75] + x[96] <= 1
 edge604: x[75] + x[98] <= 1
 edge605: x[75] + x[109] <= 1
 edge606: x[76] + x[80] <= 1
 edge607: x[76] + x[83] <= 1
 edge608: x[76] + x[87] <= 1
 edge609: x[76] + x[94] <= 1
 edge610: x[76] + x[99] <= 1
 edge611: x[76] + x[104] <= 1
 edge612: x[76] + x[110] <= 1
 edge613: x[77] + x[84] <= 1
 edge614: x[77] + x[95] <= 1
 edge615: x[77] + x[96] <= 1
 edge616: x[77] + x[97] <= 1
 edge617: x[77] + x[101] <= 1
 edge618: x[77] + x[106] <= 1
 edge619: x[77] + x[107] <= 1
 edge620: x[77] + x[110] <= 1
 edge621: x[78] + x[82] <= 1
 edge622: x[78] + x[84] <= 1
 edge623: x[78] + x[91] <= 1
 edge624: x[78] + x[110] <= 1
 edge625: x[78] + x[112] <= 1
 edge626: x[78] + x[115] <= 1
 edge627: x[79] + x[85] <= 1
 edge628: x[79] + x[89] <= 1
 edge629: x[79] + x[111] <= 1
 edge630: x[80] + x[82] <= 1
 edge631: x[80] + x[91] <= 1
 edge632: x[80] + x[97] <= 1
 edge633: x[80] + x[105] <= 1
 edge634: x[80] + x[106] <= 1
 edge635: x[80] + x[114] <= 1
 edge636: x[80] + x[117] <= 1
 edge637: x[80] + x[125] <= 1
 edge638: x[81] + x[82] <= 1
 edge639: x[81] + x[86] <= 1
 edge640: x[81] + x[91] <= 1
 edge641: x[81] + x[94] <= 1
 edge642: x[81] + x[123] <= 1
 edge643: x[82] + x[86] <= 1
 edge644: x[82] + x[106] <= 1
 edge645: x[82] + x[117] <= 1
 edge646: x[83] + x[93] <= 1
 edge647: x[83] + x[98] <= 1
 edge648: x[83] + x[104] <= 1
 edge649: x[83] + x[105] <= 1
 edge650: x[83] + x[108] <= 1
 edge651: x[83] + x[114] <= 1
 edge652: x[83] + x[123] <= 1
 edge653: x[84] + x[89] <= 1
 edge654: x[84] + x[95] <= 1
 edge655: x[84] + x[97] <= 1
 edge656: x[84] + x[101] <= 1
 edge657: x[84] + x[102] <= 1
 edge658: x[84] + x[110] <= 1
 edge659: x[84] + x[116] <= 1
 edge660: x[84] + x[122] <= 1
 edge661: x[85] + x[100] <= 1
 edge662: x[85] + x[104] <= 1
 edge663: x[85] + x[125] <= 1
 edge664: x[86] + x[92] <= 1
 edge665: x[86] + x[102] <= 1
 edge666: x[88] + x[91] <= 1
 edge667: x[88] + x[105] <= 1
 edge668: x[88] + x[106] <= 1
 edge669: x[88] + x[107] <= 1
 edge670: x[88] + x[123] <= 1
 edge671: x[89] + x[98] <= 1
 edge672: x[89] + x[99] <= 1
 edge673: x[89] + x[110] <= 1
 edge674: x[89] + x[115] <= 1
 edge675: x[89] + x[122] <= 1
 edge676: x[90] + x[94] <= 1
 edge677: x[90] + x[97] <= 1
 edge678: x[91] + x[93] <= 1
 edge679: x[91] + x[96] <= 1
 edge680: x[91] + x[120] <= 1
 edge681: x[92] + x[95] <= 1
 edge682: x[92] + x[115] <= 1
 edge683: x[92] + x[123] <= 1
 edge684: x[93] + x[97] <= 1
 edge685: x[93] + x[106] <= 1
 edge686: x[93] + x[115] <= 1
 edge687: x[93] + x[118] <= 1
 edge688: x[93] + x[121] <= 1
 edge689: x[93] + x[123] <= 1
 edge690: x[94] + x[95] <= 1
 edge691: x[94] + x[114] <= 1
 edge692: x[96] + x[97] <= 1
 edge693: x[96] + x[113] <= 1
 edge694: x[96] + x[117] <= 1
 edge695: x[96] + x[122] <= 1
 edge696: x[97] + x[101] <= 1
 edge697: x[97] + x[110] <= 1
 edge698: x[98] + x[111] <= 1
 edge699: x[98] + x[114] <= 1
 edge700: x[99] + x[120] <= 1
 edge701: x[99] + x[125] <= 1
 edge702: x[100] + x[106] <= 1
 edge703: x[100] + x[115] <= 1
 edge704: x[101] + x[122] <= 1
 edge705: x[102] + x[104] <= 1
 edge706: x[102] + x[124] <= 1
 edge707: x[103] + x[115] <= 1
 edge708: x[103] + x[117] <= 1
 edge709: x[104] + x[105] <= 1
 edge710: x[104] + x[122] <= 1
 edge711: x[105] + x[124] <= 1
 edge712: x[105] + x[125] <= 1
 edge713: x[107] + x[116] <= 1
 edge714: x[107] + x[122] <= 1
 edge715: x[108] + x[110] <= 1
 edge716: x[108] + x[113] <= 1
 edge717: x[108] + x[119] <= 1
 edge718: x[108] + x[122] <= 1
 edge719: x[109] + x[115] <= 1
 edge720: x[109] + x[118] <= 1
 edge721: x[110] + x[115] <= 1
 edge722: x[110] + x[118] <= 1
 edge723: x[110] + x[124] <= 1
 edge724: x[110] + x[125] <= 1
 edge725: x[112] + x[113] <= 1
 edge726: x[113] + x[121] <= 1
 edge727: x[114] + x[115] <= 1
 edge728: x[114] + x[119] <= 1
 edge729: x[115] + x[118] <= 1
 edge730: x[116] + x[119] <= 1
 edge731: x[116] + x[123] <= 1
 edge732: x[117] + x[119] <= 1
 edge733: x[117] + x[124] <= 1
 edge734: x[118] + x[119] <= 1
 edge735: x[118] + x[121] <= 1
 edge736: x[122] + x[124] <= 1
Bounds
Binaries
 x[5] x[1] x[6] x[2] x[8] x[4] x[9] x[11] x[13] x[14] x[7] x[15] x[16]
 x[10] x[12] x[17] x[18] x[19] x[21] x[22] x[23] x[24] x[25] x[3] x[27]
 x[28] x[29] x[30] x[31] x[32] x[33] x[34] x[35] x[36] x[20] x[37] x[38]
 x[39] x[26] x[40] x[41] x[42] x[43] x[44] x[45] x[46] x[47] x[48] x[49]
 x[50] x[51] x[52] x[53] x[54] x[55] x[56] x[57] x[58] x[59] x[60] x[61]
 x[62] x[63] x[64] x[65] x[66] x[67] x[68] x[69] x[70] x[71] x[72] x[73]
 x[74] x[75] x[76] x[77] x[78] x[79] x[80] x[81] x[82] x[83] x[84] x[85]
 x[86] x[87] x[88] x[89] x[90] x[91] x[92] x[93] x[94] x[95] x[96] x[97]
 x[98] x[99] x[100] x[101] x[102] x[103] x[104] x[105] x[106] x[107] x[108]
 x[109] x[110] x[111] x[112] x[113] x[114] x[115] x[116] x[117] x[118]
 x[119] x[120] x[121] x[122] x[123] x[124] x[125]
End
